c Sudoku solution
p cnf 729 0
181 0
236 0
263 0
279 0
294 0
324 0
377 0
382 0
453 0
475 0
518 0
525 0
576 0
613 0
651 0
792 0
672 0
817 0
822 0
846 0
889 0
928 0
954 0
967 0
942 0
743 0
787 0
123 0
178 0
285 0
196 0
393 0
338 0
356 0
898 0
855 0
861 0
995 0
986 0
583 0
971 0
774 0
873 0
834 0
933 0
919 0
414 0
488 0
684 0
716 0
735 0
721 0
139 0
227 0
637 0
699 0
626 0
429 0
466 0
432 0
531 0
491 0
597 0
447 0
157 0
115 0
212 0
311 0
162 0
258 0
144 0
241 0
549 0
564 0
552 0
648 0
665 0
345 0
369 0
759 0
768 0
